20
10
658929
0
0
40 45 42 43 44 45 41 42 40 42
1
0
39 40 38 44 42 38 41 36 39 42
2
0
56 53 57 53 56 55 52 55 54 54
3
0
43 42 40 41 43 38 40 40 38 42
4
0
66 66 63 68 65 70 68 66 68 64
5
0
55 52 55 52 55 53 56 53 54 51
6
0
46 46 48 48 52 49 50 46 47 50
7
0
50 49 51 49 51 53 49 50 46 47
8
0
59 65 62 58 63 56 59 58 60 61
9
0
41 39 38 41 38 39 39 40 35 41
10
0
38 39 39 41 36 37 37 38 42 39
11
0
35 36 35 37 34 29 35 36 38 36
12
0
45 41 45 45 43 44 45 43 47 44
13
0
43 38 43 42 43 41 41 43 44 44
14
0
58 55 56 58 55 54 56 59 57 54
15
0
56 57 56 60 56 57 55 58 55 58
16
0
51 48 49 52 53 50 52 56 53 55
17
0
40 39 41 41 40 38 39 41 41 37
18
0
45 43 44 44 42 44 43 42 45 38
19
0
43 46 42 48 45 48 45 44 48 46
